&CONTROL
  calculation = 'scf'
  etot_conv_thr =   2.0000000000d-05
  forc_conv_thr =   1.0000000000d-04
  outdir = './out/'
  prefix = 'GaAs'
  pseudo_dir = './pseudo/'
  tprnfor = .true.
  tstress = .true.
  verbosity = 'high'
/
&SYSTEM
  ecutrho =   5.6000000000d+02
  ecutwfc =   7.0000000000d+01
  ibrav = 0
  nat = 2
  nosym = .true.
  noinv = .true.
  ntyp = 2
  occupations = 'fixed'
/
&ELECTRONS
  conv_thr =   4.0000000000d-10
  electron_maxstep = 80
  mixing_beta =   4.0000000000d-01
/
ATOMIC_SPECIES
As     74.9216 As.upf
Ga     69.723 Ga.upf
ATOMIC_POSITIONS crystal
As           0.2500000000       0.2500000000       0.2500000000 
Ga           0.0000000000       0.0000000000       0.0000000000 
K_POINTS automatic
13 13 13 0 0 0
CELL_PARAMETERS angstrom
      2.8750000000       2.8750000000       0.0000000000
      2.8750000000       0.0000000000       2.8750000000
      0.0000000000       2.8750000000       2.8750000000