&CONTROL
  calculation = 'scf'
  etot_conv_thr =   2.0000000000d-8
  forc_conv_thr =   1.0000000000d-04
  outdir = './out/'
  prefix = 'si_lda_trial'
  pseudo_dir = './pseudo/'
  tprnfor = .true.
  tstress = .true.
  verbosity = 'high'
/
&SYSTEM
  ecutrho =   1.2000000000d+02
  ecutwfc =   3.0000000000d+01
  ibrav = 0
  nat = 2
  nosym = .true.
  noinv = .true.
  nspin = 2
  ntyp = 1
  !occupations = 'fixed' !when smearing, 
  occupations = 'smearing', smearing = 'gaussian', degauss = 0.01,
  tot_magnetization = 0
/
&ELECTRONS
  conv_thr =   4.0000000000d-10
  electron_maxstep = 80
  mixing_beta =   4.0000000000d-01
/
ATOMIC_SPECIES
Si     28.0855 Si_lda.upf
ATOMIC_POSITIONS crystal
Si           0.0000000000       0.0000000000       0.0000000000 
Si           0.2500000000       0.2500000000       0.2500000000 
K_POINTS automatic
3 3 3 0 0 0
CELL_PARAMETERS angstrom
      2.7154800000       2.7154800000       0.0000000000
      2.7154800000       0.0000000000       2.7154800000
      0.0000000000       2.7154800000       2.7154800000

HUBBARD {atomic}
U Si-3P 0.0000000001