&CONTROL
  calculation = 'scf'
  etot_conv_thr =   1.0000000000d-05
  forc_conv_thr =   1.0000000000d-04
  outdir = './out/'
  prefix = 'aiida'
  pseudo_dir = './pseudo/'
  tprnfor = .true.
  tstress = .true.
  verbosity = 'high'
/
&SYSTEM
  degauss =   7.3498618000d-03
  ecutrho =   9.6000000000d+02
  ecutwfc =   12.0000000000d+01
  ibrav = 0
  nat = 1
  nspin = 2
  nosym = .true.
  noinv = .true.
  ntyp = 1
  occupations = 'smearing'
  smearing = 'cold'
  starting_magnetization(1) = 0.0
/
&ELECTRONS
  conv_thr =   2.0000000000d-10
  mixing_beta =   4.0000000000d-01
/
ATOMIC_SPECIES
Al     26.981538 Al.upf
ATOMIC_POSITIONS crystal
Al           0.0000000000       0.0000000000       0.0000000000 
K_POINTS automatic
3 3 3 0 0 0
CELL_PARAMETERS angstrom
      2.0200000000       2.0200000000       0.0000000000
      2.0200000000       0.0000000000       2.0200000000
      0.0000000000       2.0200000000       2.0200000000
HUBBARD ortho-atomic
U Al-3p 0.00001