&CONTROL
  calculation = 'scf'
  etot_conv_thr =   1.0000000000d-14
  outdir = './out/'
  prefix = 'aiida'
  pseudo_dir = './pseudo/'
  tprnfor = .true.
  tstress = .true.
  verbosity = 'high'
/
&SYSTEM
  degauss =   0.01
  ecutwfc =   6.0000000000d+01
  ibrav = 0
  nat = 1
  nspin = 2
  ntyp = 1
  nosym = .true.
  noinv = .true.
  input_dft = 'SLA+PW'
  occupations = 'smearing'
  smearing = 'gaussian'
  starting_magnetization(1) = 0.67
/
&ELECTRONS
  conv_thr =   1.0000000000d-12
/
ATOMIC_SPECIES
Fe     55.845 Fe.upf
ATOMIC_POSITIONS crystal
Fe           0.0100000000       0.0200000000       0.0300000000 
K_POINTS automatic
3 3 3 0 0 0
CELL_PARAMETERS bohr
     -5.4235200000       5.4235200000       5.4235200000
      5.4235200000      -5.4235200000       5.4235200000
      5.4235200000       5.4235200000      -5.4235200000