&CONTROL
  calculation = 'scf'
  etot_conv_thr =   1.0000000000d-05
  forc_conv_thr =   1.0000000000d-04
  outdir = './out/'
  prefix = 'aiida'
  pseudo_dir = './pseudo/'
  tprnfor = .true.
  tstress = .true.
  verbosity = 'high'
/
&SYSTEM
  degauss =   0.01
  ecutrho =   4.8000000000d+02
  ecutwfc =   6.0000000000d+01
  ibrav = 0
  nat = 1
  nspin = 2
  ntyp = 1
  occupations = 'smearing'
  starting_magnetization(1) = 0.5
/
&ELECTRONS
  conv_thr =   1.0000000000d-6
/
ATOMIC_SPECIES
Fe     55.845 Fe.upf
ATOMIC_POSITIONS crystal
Fe           0.0000000000       0.0000000000       0.0000000000 
K_POINTS automatic
3 3 3 0 0 0
CELL_PARAMETERS bohr
      5.4235200000       5.4235200000      -5.4235200000
      5.4235200000      -5.4235200000       5.4235200000
     -5.4235200000       5.4235200000       5.4235200000
HUBBARD ortho-atomic
U Fe-3d 0.00001